NAME: tsp50_11
COMMENT: 50-tsp problem (Padberg/Rinaldi)
TYPE: TSP
DIMENSION: 50
EDGE_WEIGHT_TYPE : EUC_2D
NODE_COORD_SECTION
1 7 36
2 20 34
3 40 17
4 31 33
5 25 35
6 10 16
7 6 12
8 29 12
9 17 32
10 5 37
11 30 1
12 4 37
13 33 39
14 15 8
15 11 5
16 25 18
17 33 37
18 28 15
19 32 22
20 27 3
21 13 15
22 16 29
23 22 36
24 3 23
25 40 9
26 16 29
27 28 13
28 39 31
29 8 24
30 32 35
31 2 37
32 9 19
33 37 1
34 10 6
35 26 15
36 39 21
37 31 14
38 19 32
39 29 15
40 21 5
41 25 39
42 37 29
43 8 11
44 33 30
45 8 23
46 14 14
47 9 12
48 22 16
49 16 38
50 39 11
